words_hard_train/7029.qaiger
aag 97 16 0 1 81
2
4
8
12
16
20
24
28
36
50
58
66
68
72
76
94
195
6 2 4
10 6 8
14 10 12
18 14 16
22 18 20
26 22 24
30 26 29
32 27 28
34 31 33
38 12 37
40 13 36
42 39 41
44 34 43
46 19 21
48 47 23
52 4 51
54 5 50
56 53 55
60 2 59
62 3 58
64 61 63
70 67 69
74 70 73
78 74 77
80 64 78
82 57 81
84 56 80
86 83 85
88 48 86
90 23 25
92 91 27
96 8 95
98 9 94
100 97 99
102 101 85
104 100 84
106 103 105
108 92 106
110 89 109
112 49 87
114 15 17
116 115 19
118 65 79
120 119 81
122 117 121
124 113 123
126 116 120
128 7 71
130 68 5
132 67 2
134 130 133
136 128 135
138 7 9
140 139 11
142 137 141
144 71 72
146 145 75
148 143 146
150 136 140
152 149 151
154 11 13
156 155 15
158 75 76
160 159 79
162 157 161
164 153 163
166 127 165
168 156 160
170 166 169
172 124 171
174 110 173
176 93 107
178 175 177
180 178 104
182 44 181
184 179 105
186 185 45
188 183 187
190 35 42
192 190 181
194 189 193
i0 2 y2[0]
i1 2 y2[1]
i2 2 y2[2]
i3 2 y2[3]
i4 2 y2[4]
i5 2 y2[5]
i6 2 y2[6]
i7 2 y2[7]
i8 1 x2[7]
i9 1 x2[5]
i10 1 x2[4]
i11 1 x2[0]
i12 1 x2[1]
i13 1 x2[2]
i14 1 x2[3]
i15 1 x2[6]
o0 bv[0]
c
simplified
  <
    add
      2 y2
      1
    xor
      1 x2
      << 4
        2 y2
