words_hard_train/7029.qaiger.qdimacs
p cnf 97 244
a 33 34 36 38 47 18 25 29 0
e 1 2 3 4 5 6 7 8 9 10 11 12 13 14 15 16 17 19 20 21 22 23 24 26 27 28 30 31 32 35 37 39 40 41 42 43 44 45 46 48 49 50 51 52 53 54 55 56 57 58 59 60 61 62 63 64 65 66 67 68 69 70 71 72 73 74 75 76 77 78 79 80 81 82 83 84 85 86 87 88 89 90 91 92 93 94 95 96 97 0
-1 -2 3 0
1 -3 0
2 -3 0
-3 -4 5 0
3 -5 0
4 -5 0
-5 -6 7 0
5 -7 0
6 -7 0
-7 -8 9 0
7 -9 0
8 -9 0
-9 -10 11 0
9 -11 0
10 -11 0
-11 -12 13 0
11 -13 0
12 -13 0
-13 14 15 0
13 -15 0
-14 -15 0
13 -14 16 0
-13 -16 0
14 -16 0
15 16 17 0
-15 -17 0
-16 -17 0
-6 18 19 0
6 -19 0
-18 -19 0
6 -18 20 0
-6 -20 0
18 -20 0
19 20 21 0
-19 -21 0
-20 -21 0
-17 21 22 0
17 -22 0
-21 -22 0
9 10 23 0
-9 -23 0
-10 -23 0
23 11 24 0
-23 -24 0
-11 -24 0
-2 25 26 0
2 -26 0
-25 -26 0
2 -25 27 0
-2 -27 0
25 -27 0
26 27 28 0
-26 -28 0
-27 -28 0
-1 29 30 0
1 -30 0
-29 -30 0
1 -29 31 0
-1 -31 0
29 -31 0
30 31 32 0
-30 -32 0
-31 -32 0
33 34 35 0
-33 -35 0
-34 -35 0
-35 36 37 0
35 -37 0
-36 -37 0
-37 38 39 0
37 -39 0
-38 -39 0
-32 -39 40 0
32 -40 0
39 -40 0
28 40 41 0
-28 -41 0
-40 -41 0
-28 -40 42 0
28 -42 0
40 -42 0
41 42 43 0
-41 -43 0
-42 -43 0
-24 -43 44 0
24 -44 0
43 -44 0
11 12 45 0
-11 -45 0
-12 -45 0
45 13 46 0
-45 -46 0
-13 -46 0
-4 47 48 0
4 -48 0
-47 -48 0
4 -47 49 0
-4 -49 0
47 -49 0
48 49 50 0
-48 -50 0
-49 -50 0
50 42 51 0
-50 -51 0
-42 -51 0
-50 -42 52 0
50 -52 0
42 -52 0
51 52 53 0
-51 -53 0
-52 -53 0
-46 -53 54 0
46 -54 0
53 -54 0
44 54 55 0
-44 -55 0
-54 -55 0
24 43 56 0
-24 -56 0
-43 -56 0
7 8 57 0
-7 -57 0
-8 -57 0
57 9 58 0
-57 -58 0
-9 -58 0
32 39 59 0
-32 -59 0
-39 -59 0
59 40 60 0
-59 -60 0
-40 -60 0
58 60 61 0
-58 -61 0
-60 -61 0
56 61 62 0
-56 -62 0
-61 -62 0
-58 -60 63 0
58 -63 0
60 -63 0
3 35 64 0
-3 -64 0
-35 -64 0
-34 2 65 0
34 -65 0
-2 -65 0
33 -1 66 0
-33 -66 0
1 -66 0
-65 66 67 0
65 -67 0
-66 -67 0
-64 67 68 0
64 -68 0
-67 -68 0
3 4 69 0
-3 -69 0
-4 -69 0
69 5 70 0
-69 -70 0
-5 -70 0
68 70 71 0
-68 -71 0
-70 -71 0
35 -36 72 0
-35 -72 0
36 -72 0
72 37 73 0
-72 -73 0
-37 -73 0
71 -73 74 0
-71 -74 0
73 -74 0
-68 -70 75 0
68 -75 0
70 -75 0
74 75 76 0
-74 -76 0
-75 -76 0
5 6 77 0
-5 -77 0
-6 -77 0
77 7 78 0
-77 -78 0
-7 -78 0
37 -38 79 0
-37 -79 0
38 -79 0
79 39 80 0
-79 -80 0
-39 -80 0
78 80 81 0
-78 -81 0
-80 -81 0
76 81 82 0
-76 -82 0
-81 -82 0
63 82 83 0
-63 -83 0
-82 -83 0
-78 -80 84 0
78 -84 0
80 -84 0
-83 84 85 0
83 -85 0
-84 -85 0
-62 85 86 0
62 -86 0
-85 -86 0
-55 86 87 0
55 -87 0
-86 -87 0
46 53 88 0
-46 -88 0
-53 -88 0
87 88 89 0
-87 -89 0
-88 -89 0
-89 -52 90 0
89 -90 0
52 -90 0
-22 90 91 0
22 -91 0
-90 -91 0
89 52 92 0
-89 -92 0
-52 -92 0
92 22 93 0
-92 -93 0
-22 -93 0
91 93 94 0
-91 -94 0
-93 -94 0
17 -21 95 0
-17 -95 0
21 -95 0
-95 90 96 0
95 -96 0
-90 -96 0
94 96 97 0
-94 -97 0
-96 -97 0
-97 0
